(set-info :smt-lib-version 2.7)
(set-logic QF_NIA)
(set-info :source  | 
Generated by: Johannes Bauer
Generated on: 2026-06-18
Generator: mgm A12 Test Data Generator
Application: ELSTER
Target solver: Z3, Yices2, CVC5
Script is based on the ELSTER form: capital gains tax registration (A / KapEStInvStG)
Characteristic of the form: easy.
In this script, all terms of the form (* x1 x2 x3 ...) are in the form (* x1 c2 c3 ...),
all terms of the form (div x y) are in the form (div x c) and the symbol mod is exclusively used in the form (mod x c),
where x, y, and x1, x2, x3 ... are free constants and c, c2, c3 ... are terms in the form n or (-n) for some numeral n.
The script starts with the base constraints, which define a valid data set for the corresponding form. After the first (push 1), control constraints follow.
The goal of the control constraints in this script is to fill up a data set with values, after the characteristics of the high test coverage were placed.
number variables: 160, number constraints: 149
"https://www.elster.de/eportal/start?locale=en_US"
"https://www.mgm-tp.com/q12-tdg.html"
"https://a12.ai/public-sector"
|)
(set-info :license "https://creativecommons.org/licenses/by/4.0/")
(set-info :category "industrial")
(set-info :major-phase |variable declarations|)
(declare-fun B1-F () Bool)
(declare-fun B2-F () Bool)
(declare-fun I3-i () Int)
(declare-fun I4-N () Int)
(declare-fun B5-F () Bool)
(declare-fun I5-i () Int)
(declare-fun B6-F () Bool)
(declare-fun B7-F () Bool)
(declare-fun B8-F () Bool)
(declare-fun B9-F () Bool)
(declare-fun I9-y () Int)
(declare-fun B10-F () Bool)
(declare-fun I10-N () Int)
(declare-fun B11-F () Bool)
(declare-fun I12 () Int)
(declare-fun I13 () Int)
(declare-fun I14 () Int)
(declare-fun I15 () Int)
(declare-fun I16 () Int)
(declare-fun I17 () Int)
(declare-fun I18 () Int)
(declare-fun I19 () Int)
(declare-fun I20 () Int)
(declare-fun I21-s-y () Int)
(declare-fun I21-s-m () Int)
(declare-fun I21-s-d () Int)
(declare-fun I21-e-y () Int)
(declare-fun I21-e-m () Int)
(declare-fun I21-e-d () Int)
(declare-fun I22 () Int)
(declare-fun I23 () Int)
(declare-fun I24 () Int)
(declare-fun I25 () Int)
(declare-fun I26 () Int)
(declare-fun I27 () Int)
(declare-fun I28 () Int)
(declare-fun I29 () Int)
(declare-fun I30 () Int)
(declare-fun B31-F () Bool)
(declare-fun I31-s-y () Int)
(declare-fun I31-s-m () Int)
(declare-fun I31-s-d () Int)
(declare-fun I31-e-y () Int)
(declare-fun I31-e-m () Int)
(declare-fun I31-e-d () Int)
(declare-fun B32-F () Bool)
(declare-fun I32-y () Int)
(declare-fun I32-m () Int)
(declare-fun I32-d () Int)
(declare-fun B33-F () Bool)
(declare-fun I33-y () Int)
(declare-fun I33-m () Int)
(declare-fun I33-d () Int)
(declare-fun B34-F () Bool)
(declare-fun B35-F () Bool)
(declare-fun B36-F () Bool)
(declare-fun I36 () Int)
(declare-fun B37-F () Bool)
(declare-fun B38-F () Bool)
(declare-fun B39-F () Bool)
(declare-fun B40-F () Bool)
(declare-fun B41-F () Bool)
(declare-fun I41 () Int)
(declare-fun B42-F () Bool)
(declare-fun I42 () Int)
(declare-fun B43-F () Bool)
(declare-fun I43 () Int)
(declare-fun B44-F () Bool)
(declare-fun B45-F () Bool)
(declare-fun B46-F () Bool)
(declare-fun I46 () Int)
(declare-fun B47-F () Bool)
(declare-fun I47 () Int)
(declare-fun B48-F () Bool)
(declare-fun I48 () Int)
(declare-fun I49 () Int)
(declare-fun I50 () Int)
(declare-fun I51 () Int)
(declare-fun I52 () Int)
(declare-fun I53 () Int)
(declare-fun I54 () Int)
(declare-fun I55 () Int)
(declare-fun I56 () Int)
(declare-fun I57 () Int)
(declare-fun I58 () Int)
(declare-fun I59 () Int)
(declare-fun I60 () Int)
(declare-fun I61 () Int)
(declare-fun I62 () Int)
(declare-fun I63 () Int)
(declare-fun I64 () Int)
(declare-fun I65 () Int)
(declare-fun I66 () Int)
(declare-fun I67 () Int)
(declare-fun I68 () Int)
(declare-fun I69 () Int)
(declare-fun B70-F () Bool)
(declare-fun B71-F () Bool)
(declare-fun I71 () Int)
(declare-fun B72-F () Bool)
(declare-fun I72 () Int)
(declare-fun B73-F () Bool)
(declare-fun B74-F () Bool)
(declare-fun I74-y () Int)
(declare-fun I74-m () Int)
(declare-fun I74-d () Int)
(declare-fun B75-F () Bool)
(declare-fun B76-F () Bool)
(declare-fun I76 () Int)
(declare-fun B77-F () Bool)
(declare-fun I77 () Int)
(declare-fun B78-F () Bool)
(declare-fun B79-F () Bool)
(declare-fun B80-F () Bool)
(declare-fun I80 () Int)
(declare-fun B81-F () Bool)
(declare-fun I81 () Int)
(declare-fun B82-F () Bool)
(declare-fun I82 () Int)
(declare-fun B83-F () Bool)
(declare-fun I83 () Int)
(declare-fun B84-F () Bool)
(declare-fun I84 () Int)
(declare-fun B85-F () Bool)
(declare-fun I85 () Int)
(declare-fun B86-F () Bool)
(declare-fun I86 () Int)
(declare-fun B87-F () Bool)
(declare-fun I87 () Int)
(declare-fun B88-F () Bool)
(declare-fun I88 () Int)
(declare-fun B89-F () Bool)
(declare-fun I89 () Int)
(declare-fun B90-F () Bool)
(declare-fun I90 () Int)
(declare-fun B91-F () Bool)
(declare-fun I91 () Int)
(declare-fun B92-F () Bool)
(declare-fun I92 () Int)
(declare-fun B93-F () Bool)
(declare-fun I93 () Int)
(declare-fun B94-F () Bool)
(declare-fun I94 () Int)
(declare-fun B95-F () Bool)
(declare-fun I95 () Int)
(declare-fun B96-F () Bool)
(declare-fun I96 () Int)
(declare-fun B97-F () Bool)
(declare-fun I98 () Int)
(declare-fun B99-F () Bool)
(declare-fun B100-F () Bool)
(declare-fun B101-F () Bool)
(declare-fun B102-F () Bool)
(declare-fun B103-F () Bool)
(declare-fun B104-F () Bool)
(declare-fun B105-F () Bool)
(declare-fun B106-F () Bool)
(declare-fun B107-F () Bool)
(declare-fun B108-F () Bool)
(declare-fun B109-F () Bool)
(set-info :major-phase |base constraints|)
(set-info :base-constraint-type ||)
(assert (or B1-F B9-F B10-F))
(set-info :base-constraint-type |constraints defining hierarchy (group is filled, if a child is filled)|)
(assert (= B73-F (or B74-F B75-F)))
(assert (= B75-F (or B76-F B77-F)))
(assert (= B99-F (or B100-F B101-F)))
(assert (= B70-F (or B71-F B72-F)))
(assert (or B31-F B32-F B33-F B34-F B39-F B44-F))
(assert (= B34-F (or B35-F B36-F B37-F B38-F)))
(assert (= B39-F (or B40-F B41-F B42-F B43-F)))
(assert (= B44-F (or B45-F B46-F B47-F B48-F)))
(assert (= B102-F (or B103-F B104-F)))
(assert (= B104-F (or B105-F B106-F B107-F B108-F)))
(assert (= B78-F (or B79-F B97-F)))
(assert (= B79-F (or B80-F B81-F B82-F B83-F B84-F B85-F B86-F B87-F B88-F B89-F B90-F B91-F B92-F B93-F B94-F B95-F B96-F)))
(set-info :base-constraint-type |domainconstraints number-fields|)
(assert (ite B76-F (and (<= I76 999999999999) (>= I76 0)) (= I76 0)))
(assert (ite B77-F (and (<= I77 999999999999) (>= I77 0)) (= I77 0)))
(assert (ite B71-F (and (<= I71 999999999999) (>= I71 (- 999999999999))) (= I71 0)))
(assert (ite B72-F (and (<= I72 99999999999999) (>= I72 (- 99999999999999))) (= I72 0)))
(assert (= I12 0))
(assert (= I13 0))
(assert (= I14 0))
(assert (= I15 0))
(assert (= I16 0))
(assert (= I17 0))
(assert (= I18 0))
(assert (= I19 0))
(assert (= I20 0))
(assert (= I49 0))
(assert (= I50 0))
(assert (= I51 0))
(assert (= I52 0))
(assert (= I53 0))
(assert (= I54 0))
(assert (= I55 0))
(assert (= I56 0))
(assert (= I57 0))
(assert (= I58 0))
(assert (= I59 0))
(assert (= I60 0))
(assert (= I61 0))
(assert (= I62 0))
(assert (= I63 0))
(assert (= I64 0))
(assert (= I65 0))
(assert (= I66 0))
(assert (= I67 0))
(assert (= I68 0))
(assert (= I69 0))
(assert (= I22 0))
(assert (= I23 0))
(assert (= I24 0))
(assert (= I25 0))
(assert (= I26 0))
(assert (= I27 0))
(assert (= I28 0))
(assert (= I29 0))
(assert (= I30 0))
(assert (ite B36-F (and (<= I36 999999999999) (>= I36 (- 999999999999))) (= I36 0)))
(assert (ite B37-F true false))
(assert (ite B38-F true false))
(assert (ite B41-F (and (<= I41 999999999999) (>= I41 (- 999999999999))) (= I41 0)))
(assert (ite B42-F (and (<= I42 999999999999) (>= I42 (- 999999999999))) (= I42 0)))
(assert (ite B43-F (and (<= I43 99999999999999) (>= I43 (- 99999999999999))) (= I43 0)))
(assert (ite B46-F (and (<= I46 999999999999) (>= I46 (- 999999999999))) (= I46 0)))
(assert (ite B47-F (and (<= I47 999999999999) (>= I47 (- 999999999999))) (= I47 0)))
(assert (ite B48-F (and (<= I48 99999999999999) (>= I48 (- 99999999999999))) (= I48 0)))
(assert (ite B83-F (and (<= I83 99999999999999) (>= I83 (- 9999999999999))) (= I83 0)))
(assert (ite B82-F (and (<= I82 99999999999999) (>= I82 (- 9999999999999))) (= I82 0)))
(assert (ite B80-F (and (<= I80 99999999999999) (>= I80 (- 9999999999999))) (= I80 0)))
(assert (ite B81-F (and (<= I81 99999999999999) (>= I81 (- 9999999999999))) (= I81 0)))
(assert (ite B84-F (and (<= I84 99999999999999) (>= I84 (- 9999999999999))) (= I84 0)))
(assert (ite B86-F (and (<= I86 99999999999999) (>= I86 (- 9999999999999))) (= I86 0)))
(assert (ite B85-F (and (<= I85 99999999999999) (>= I85 (- 9999999999999))) (= I85 0)))
(assert (ite B87-F (and (<= I87 99999999999999) (>= I87 (- 9999999999999))) (= I87 0)))
(assert (ite B88-F (and (<= I88 99999999999999) (>= I88 (- 9999999999999))) (= I88 0)))
(assert (ite B89-F (and (<= I89 99999999999999) (>= I89 (- 9999999999999))) (= I89 0)))
(assert (ite B90-F (and (<= I90 99999999999999) (>= I90 (- 9999999999999))) (= I90 0)))
(assert (ite B94-F (and (<= I94 99999999999999) (>= I94 (- 9999999999999))) (= I94 0)))
(assert (ite B91-F (and (<= I91 99999999999999) (>= I91 (- 9999999999999))) (= I91 0)))
(assert (ite B92-F (and (<= I92 99999999999999) (>= I92 (- 9999999999999))) (= I92 0)))
(assert (ite B93-F (and (<= I93 99999999999999) (>= I93 (- 9999999999999))) (= I93 0)))
(assert (ite B95-F (and (<= I95 99999999999999) (>= I95 (- 9999999999999))) (= I95 0)))
(assert (ite B96-F (and (<= I96 99999999999999) (>= I96 (- 9999999999999))) (= I96 0)))
(assert (ite B97-F (and (<= I98 99999999999999) (>= I98 (- 9999999999999))) (= I98 0)))
(set-info :base-constraint-type |domainconstraints date-fields|)
(assert (and (ite B74-F (and (> I74-y 1900) (< I74-y 2100)) (= I74-y 0)) (ite B74-F (and (> I74-m 0) (<= I74-m 12)) (= I74-m 0)) (ite B74-F (and (> I74-d 0) (<= I74-d (ite (or (= I74-m 0) (= I74-m 1) (= I74-m 3) (= I74-m 5) (= I74-m 7) (= I74-m 8) (= I74-m 10) (= I74-m 12)) 31 (ite (or (= I74-m 4) (= I74-m 6) (= I74-m 9) (= I74-m 11)) 30 (ite (= (mod I74-y 4) 0) 29 28))))) (= I74-d 0))))
(assert (ite B9-F (and (> I9-y 1900) (< I9-y 2100)) (= I9-y 0)))
(assert (or (< I21-s-y I21-e-y) (and (= I21-s-y I21-e-y) (< I21-s-m I21-e-m)) (and (= I21-s-y I21-e-y) (= I21-s-m I21-e-m) (<= I21-s-d I21-e-d))))
(assert (and (ite B33-F (and (> I33-y 1900) (< I33-y 2100)) (= I33-y 0)) (ite B33-F (and (> I33-m 0) (<= I33-m 12)) (= I33-m 0)) (ite B33-F (and (> I33-d 0) (<= I33-d (ite (or (= I33-m 0) (= I33-m 1) (= I33-m 3) (= I33-m 5) (= I33-m 7) (= I33-m 8) (= I33-m 10) (= I33-m 12)) 31 (ite (or (= I33-m 4) (= I33-m 6) (= I33-m 9) (= I33-m 11)) 30 (ite (= (mod I33-y 4) 0) 29 28))))) (= I33-d 0))))
(assert (and (ite B32-F (and (> I32-y 1900) (< I32-y 2100)) (= I32-y 0)) (ite B32-F (and (> I32-m 0) (<= I32-m 12)) (= I32-m 0)) (ite B32-F (and (> I32-d 0) (<= I32-d (ite (or (= I32-m 0) (= I32-m 1) (= I32-m 3) (= I32-m 5) (= I32-m 7) (= I32-m 8) (= I32-m 10) (= I32-m 12)) 31 (ite (or (= I32-m 4) (= I32-m 6) (= I32-m 9) (= I32-m 11)) 30 (ite (= (mod I32-y 4) 0) 29 28))))) (= I32-d 0))))
(assert (or (< I31-s-y I31-e-y) (and (= I31-s-y I31-e-y) (< I31-s-m I31-e-m)) (and (= I31-s-y I31-e-y) (= I31-s-m I31-e-m) (<= I31-s-d I31-e-d))))
(assert (=> B31-F (and (>= I31-e-d 1) (<= I31-e-d (ite (or (= I31-e-m 0) (= I31-e-m 1) (= I31-e-m 3) (= I31-e-m 5) (= I31-e-m 7) (= I31-e-m 8) (= I31-e-m 10) (= I31-e-m 12)) 31 (ite (or (= I31-e-m 4) (= I31-e-m 6) (= I31-e-m 9) (= I31-e-m 11)) 30 (ite (= (mod I31-e-y 4) 0) 29 28)))))))
(assert (=> B31-F (and (>= I31-e-m 1) (<= I31-e-m 12))))
(assert (=> B31-F (and (>= I31-e-y 1901) (<= I31-e-y 2099))))
(assert (=> B31-F (and (>= I31-s-d 1) (<= I31-s-d (ite (or (= I31-s-m 0) (= I31-s-m 1) (= I31-s-m 3) (= I31-s-m 5) (= I31-s-m 7) (= I31-s-m 8) (= I31-s-m 10) (= I31-s-m 12)) 31 (ite (or (= I31-s-m 4) (= I31-s-m 6) (= I31-s-m 9) (= I31-s-m 11)) 30 (ite (= (mod I31-s-y 4) 0) 29 28)))))))
(assert (=> B31-F (and (>= I31-s-m 1) (<= I31-s-m 12))))
(assert (=> B31-F (and (>= I31-s-y 1901) (<= I31-s-y 2099))))
(set-info :base-constraint-type |domainconstraints index-based string fields|)
(assert (or (= I4-N 0) (= I4-N 1)))
(assert (ite B10-F (or (= I10-N 1) (= I10-N 2) (= I10-N 3) (= I10-N 4) (= I10-N 5) (= I10-N 6) (= I10-N 7) (= I10-N 8) (= I10-N 9) (= I10-N 10) (= I10-N 11) (= I10-N 12)) (= I10-N 0)))
(assert (or (= I3-i 1) (= I3-i 2) (= I3-i 3) (= I3-i 4) (= I3-i 5) (= I3-i 6) (= I3-i 7) (= I3-i 8) (= I3-i 9) (= I3-i 10) (= I3-i 11) (= I3-i 12) (= I3-i 13) (= I3-i 14) (= I3-i 15)))
(assert (ite B5-F (or (= I5-i 1) (= I5-i 2) (= I5-i 3) (= I5-i 4) (= I5-i 5) (= I5-i 6) (= I5-i 7) (= I5-i 8) (= I5-i 9) (= I5-i 10) (= I5-i 11) (= I5-i 12) (= I5-i 13) (= I5-i 14) (= I5-i 15)) (= I5-i 0)))
(set-info :base-constraint-type |constraints, guarding filling of calculations|)
(assert (= (or B37-F B42-F B47-F) B71-F))
(assert (= (or B38-F B43-F B48-F) B72-F))
(assert (= (or B83-F B82-F B84-F B80-F B81-F B85-F B86-F B87-F B88-F B89-F B96-F B90-F B93-F B94-F B91-F B92-F B95-F B71-F) B97-F))
(set-info :base-constraint-type |constraints from validation-rules|)
(assert (not (and B77-F B76-F (distinct I76 0) (distinct I77 (div (* I76 15) 100)))))
(assert (not (and B74-F (or (< I74-y 2025) (> I74-y 2025)))))
(assert (not (and (or B101-F B100-F) (not (and B101-F B100-F)))))
(assert (not (and (or B37-F B42-F B47-F) (not B71-F))))
(assert (not (and (or B38-F B43-F B48-F) (not B72-F))))
(assert (not (and B71-F (not B80-F) (not B81-F) (not B82-F) (not B83-F) (not B84-F) (not B85-F) (not B86-F) (not B87-F) (not B88-F) (not B89-F) (not B90-F) (not B91-F) (not B92-F) (not B93-F) (not B94-F) (not B95-F) (not B96-F) (not B97-F))))
(assert (not (and B71-F (or B37-F B42-F B47-F) (distinct I71 (+ I13 I16 I19 I23 I26 I29 1 I42 I47 I50 I53 I56 I59 I62 I65 I68)))))
(assert (not (and B72-F (or B38-F B43-F B48-F) (distinct I72 (+ I14 I17 I20 I24 I27 I30 (- 1) I43 I48 I51 I54 I57 I60 I63 I66 I69)))))
(assert (not (and B9-F (or (< I9-y 2025) (> I9-y 2025)))))
(assert (not (and B33-F B32-F (or (> I33-y I32-y) (and (= I33-y I32-y) (> I33-m I32-m)) (and (= I33-y I32-y) (= I33-m I32-m) (> I33-d I32-d))))))
(assert (not (and B32-F (or (distinct I32-y (ite B9-F I9-y 0)) (distinct I32-m I10-N)))))
(assert (not (and B32-F (< I32-y 2025))))
(assert (not (and (not (and B33-F B32-F B31-F)) (or B34-F B39-F B44-F))))
(assert (not (and (or B33-F B32-F B31-F) (not B34-F) (not B39-F) (not B44-F))))
(assert (not (and (or B36-F B41-F B46-F) (or (and (distinct I41 0) (= I42 0)) (and (distinct I46 0) (= I47 0))))))
(assert (not (and (or B35-F B36-F B37-F B38-F) (not (and B35-F B36-F B37-F B38-F)))))
(assert (not (and (or B37-F B42-F B47-F) (or (> 100 (+ (* I36 15) 100)) (> (* I42 100) (+ (* I41 15) 100)) (> (* I47 100) (+ (* I46 15) 100))))))
(assert (not (and B42-F B43-F (> (ite (>= (- I43 (div (* I42 55) 10)) 0) (- I43 (div (* I42 55) 10)) (- (- I43 (div (* I42 55) 10)))) 100))))
(assert (not (and (or B40-F B41-F B42-F B43-F) (not (and B40-F B41-F B42-F B43-F)))))
(assert (not (and B47-F B48-F (> (ite (>= (- I48 (div (* I47 55) 10)) 0) (- I48 (div (* I47 55) 10)) (- (- I48 (div (* I47 55) 10)))) 100))))
(assert (not (and (or B45-F B46-F B47-F B48-F) (not (and B45-F B46-F B47-F B48-F)))))
(assert (not (and B31-F B32-F (or (> I31-e-y I32-y) (and (= I31-e-y I32-y) (> I31-e-m I32-m)) (and (= I31-e-y I32-y) (= I31-e-m I32-m) (> I31-e-d I32-d))))))
(assert (not (and B31-F (not B32-F))))
(assert (not (and B31-F (or (< I31-s-y (- I31-e-y 1)) (and (= I31-s-y (- I31-e-y 1)) (< I31-s-m I31-e-m)) (and (= I31-s-y (- I31-e-y 1)) (= I31-s-m I31-e-m) (< I31-s-d (+ I31-e-d 1)))))))
(assert (not (or (and (not B1-F) (not B2-F)) (and B1-F B2-F))))
(assert (not (and B1-F B74-F)))
(assert (not (and B1-F (not (and B9-F B10-F)))))
(assert (not (and B1-F B9-F B10-F (or (< 2026 I9-y) (and (= 2026 I9-y) (<= 6 I10-N))))))
(assert (not (and B1-F B9-F B10-F (or (< 2027 I9-y) (and (= 2027 I9-y) (<= 6 I10-N))))))
(assert (not (and B2-F (or B9-F B10-F B11-F B31-F B32-F B33-F B35-F B36-F B37-F B38-F B40-F B41-F B42-F B43-F B45-F B46-F B47-F B48-F B71-F B72-F))))
(assert (not (and B2-F (not (and B74-F B76-F B77-F)))))
(assert (not (and B103-F (not (and B105-F B106-F)))))
(assert (not (and (not B103-F) (or B105-F B106-F))))
(assert (not (and B5-F (= I4-N 0))))
(assert (not (and B5-F (= I5-i I3-i))))
(assert (not (and B73-F (not B2-F))))
(assert (not (and (or B83-F B82-F B84-F B80-F B81-F B85-F B86-F B87-F B88-F B89-F B96-F B90-F B93-F B94-F B91-F B92-F B95-F) (not B97-F))))
(assert (not (and B97-F (or B83-F B82-F B84-F B80-F B81-F B85-F B86-F B87-F B88-F B89-F B96-F B90-F B93-F B94-F B91-F B92-F B95-F) (distinct I98 (+ I83 I82 I84 I80 I81 I85 I86 I87 I88 I89 I96 I90 I93 I94 I91 I92 I95)))))
(assert (not (and B97-F (not B83-F) (not B82-F) (not B84-F) (not B80-F) (not B81-F) (not B85-F) (not B86-F) (not B87-F) (not B88-F) (not B89-F) (not B96-F) (not B90-F) (not B93-F) (not B94-F) (not B91-F) (not B92-F) (not B95-F))))
(assert (not (and B97-F B71-F (distinct I98 (* I71 100)))))
(set-info :major-phase |control constraints|)
(push 1)
(assert B106-F)
(set-info :status sat)
(check-sat)
(push 1)
(assert B84-F)
(set-info :status sat)
(check-sat)
(push 1)
(assert B46-F)
(set-info :status sat)
(check-sat)
(push 1)
(assert B97-F)
(set-info :status sat)
(check-sat)
(push 1)
(assert B85-F)
(set-info :status sat)
(check-sat)
(push 1)
(assert B86-F)
(set-info :status sat)
(check-sat)
(push 1)
(assert B108-F)
(set-info :status sat)
(check-sat)
(push 1)
(assert B42-F)
(set-info :status sat)
(check-sat)
(push 1)
(assert B6-F)
(set-info :status sat)
(check-sat)
(push 1)
(assert B43-F)
(set-info :status sat)
(check-sat)
(push 1)
(assert B45-F)
(set-info :status sat)
(check-sat)
(push 1)
(assert B91-F)
(set-info :status sat)
(check-sat)
(push 1)
(assert B92-F)
(set-info :status sat)
(check-sat)
(push 1)
(assert B80-F)
(set-info :status sat)
(check-sat)
(push 1)
(assert B94-F)
(set-info :status sat)
(check-sat)
(push 1)
(assert B81-F)
(set-info :status sat)
(check-sat)
(push 1)
(assert B76-F)
(set-info :status unsat)
(check-sat)
(pop 1)
(push 1)
(assert B93-F)
(set-info :status sat)
(check-sat)
(push 1)
(assert B33-F)
(set-info :status sat)
(check-sat)
(push 1)
(assert B83-F)
(set-info :status sat)
(check-sat)
(push 1)
(assert B107-F)
(set-info :status sat)
(check-sat)
(push 1)
(assert B82-F)
(set-info :status sat)
(check-sat)
(push 1)
(assert B90-F)
(set-info :status sat)
(check-sat)
(push 1)
(assert B105-F)
(set-info :status sat)
(check-sat)
(push 1)
(assert B36-F)
(set-info :status sat)
(check-sat)
(push 1)
(assert B32-F)
(set-info :status sat)
(check-sat)
(push 1)
(assert B10-F)
(set-info :status sat)
(check-sat)
(push 1)
(assert B103-F)
(set-info :status sat)
(check-sat)
(push 1)
(assert B2-F)
(set-info :status unsat)
(check-sat)
(pop 1)
(push 1)
(assert B101-F)
(set-info :status sat)
(check-sat)
(push 1)
(assert B47-F)
(set-info :status sat)
(check-sat)
(push 1)
(assert B31-F)
(set-info :status sat)
(check-sat)
(push 1)
(assert B48-F)
(set-info :status sat)
(check-sat)
(push 1)
(assert B95-F)
(set-info :status sat)
(check-sat)
(push 1)
(assert B77-F)
(set-info :status unsat)
(check-sat)
(pop 1)
(push 1)
(assert B89-F)
(set-info :status sat)
(check-sat)
(push 1)
(assert B96-F)
(set-info :status sat)
(check-sat)
(push 1)
(assert B109-F)
(set-info :status sat)
(check-sat)
(push 1)
(assert B40-F)
(set-info :status sat)
(check-sat)
(push 1)
(assert B7-F)
(set-info :status sat)
(check-sat)
(push 1)
(assert B9-F)
(set-info :status sat)
(check-sat)
(push 1)
(assert B74-F)
(set-info :status unsat)
(check-sat)
(pop 1)
(push 1)
(assert B71-F)
(set-info :status sat)
(check-sat)
(push 1)
(assert B87-F)
(set-info :status sat)
(check-sat)
(push 1)
(assert B5-F)
(set-info :status sat)
(check-sat)
(push 1)
(assert B11-F)
(set-info :status sat)
(check-sat)
(push 1)
(assert B100-F)
(set-info :status sat)
(check-sat)
(push 1)
(assert B88-F)
(set-info :status sat)
(check-sat)
(push 1)
(assert B37-F)
(set-info :status sat)
(check-sat)
(push 1)
(assert B72-F)
(set-info :status sat)
(check-sat)
(push 1)
(assert B8-F)
(set-info :status sat)
(check-sat)
(push 1)
(assert B41-F)
(set-info :status sat)
(check-sat)
(push 1)
(assert B35-F)
(set-info :status sat)
(check-sat)
(push 1)
(assert B38-F)
(set-info :status sat)
(check-sat)
(exit)

